This is Ipopt version 3.10.0, running with linear solver ma27.

Number of nonzeros in equality constraint Jacobian...:        0
Number of nonzeros in inequality constraint Jacobian.:       48
Number of nonzeros in Lagrangian Hessian.............:        0

Total number of variables............................:        6
                     variables with only lower bounds:        0
                variables with lower and upper bounds:        6
                     variables with only upper bounds:        0
Total number of equality constraints.................:        0
Total number of inequality constraints...............:        8
        inequality constraints with only lower bounds:        0
   inequality constraints with lower and upper bounds:        0
        inequality constraints with only upper bounds:        8

iter    objective    inf_pr   inf_du lg(mu)  ||d||  lg(rg) alpha_du alpha_pr  ls
   0  7.6645942e+00 2.35e+00 1.19e+00   0.0 0.00e+00    -  0.00e+00 0.00e+00   0
   1  9.2932179e+00 1.53e+00 1.04e+01  -0.5 1.52e+00    -  5.48e-01 4.85e-01f  1
   2  9.6971367e+00 7.31e-01 5.26e+00  -0.4 9.76e-01    -  9.60e-01 5.52e-01h  1
   3  1.1988010e+01 5.04e-01 1.79e+01  -0.4 1.01e+00    -  8.85e-01 5.48e-01h  1
   4  1.3748476e+01 1.74e-01 7.89e+00  -0.6 1.31e+00    -  6.69e-01 9.49e-01h  1
   5  1.4703534e+01 6.36e-02 3.15e+00  -1.2 5.89e-01    -  9.99e-01 6.94e-01h  1
   6  1.5089444e+01 4.29e-02 1.09e+01  -1.3 4.89e-01    -  9.79e-01 3.01e-01h  1
   7  1.5973792e+01 4.64e-03 2.61e+00  -2.4 2.32e-01    -  1.00e+00 9.21e-01h  1
   8  1.6054150e+01 0.00e+00 6.14e-01  -2.4 6.84e-02    -  1.00e+00 1.00e+00h  1
   9  1.5997216e+01 3.36e-05 2.17e-01  -3.4 1.00e-01    -  1.00e+00 1.00e+00h  1
iter    objective    inf_pr   inf_du lg(mu)  ||d||  lg(rg) alpha_du alpha_pr  ls
  10  1.5961260e+01 8.46e-04 6.02e-02  -4.6 7.39e-03    -  1.00e+00 1.00e+00h  1
  11  1.5961039e+01 1.43e-04 5.30e-02  -6.3 1.61e-03    -  1.00e+00 9.99e-01h  1
  12  1.5964177e+01 1.17e-04 1.60e-02  -8.2 4.24e-04    -  1.00e+00 1.00e+00h  1

Number of Iterations....: 12

                                   (scaled)                 (unscaled)
Objective...............:   1.5964176856274880e+01    1.5964176856274880e+01
Dual infeasibility......:   1.6010923808743017e-02    1.6010923808743017e-02
Constraint violation....:   1.1715954570209493e-04    1.1715954570209493e-04
Complementarity.........:   9.9757670867605091e-09    9.9757670867605091e-09
Overall NLP error.......:   1.6010923808743017e-02    1.6010923808743017e-02


Number of objective function evaluations             = 13
Number of objective gradient evaluations             = 13
Number of equality constraint evaluations            = 0
Number of inequality constraint evaluations          = 13
Number of equality constraint Jacobian evaluations   = 0
Number of inequality constraint Jacobian evaluations = 13
Number of Lagrangian Hessian evaluations             = 0
Total CPU secs in IPOPT (w/o function evaluations)   =      0.021
Total CPU secs in NLP function evaluations           =    981.798

EXIT: Stopping optimization at current point as requested by user.
